NAME : bier127.125053.tour
COMMENT : Cost = 41758_125053
COMMENT : Found by LKH [Keld Helsgaun] Thu Nov 16 17:24:02 2017
TYPE : TOUR
DIMENSION : 129
TOUR_SECTION
1
2
51
57
54
45
103
44
40
35
37
36
41
30
43
34
39
38
42
123
95
93
127
107
111
112
94
46
118
48
53
49
47
56
121
50
13
115
10
100
64
58
91
61
62
59
60
116
90
3
120
7
128
5
52
124
55
66
113
65
99
92
89
125
104
110
85
86
87
88
109
96
119
63
69
70
71
68
74
73
67
8
72
19
23
24
9
11
114
105
129
15
106
6
108
20
4
22
17
21
18
77
79
80
78
76
75
117
84
81
126
82
83
102
101
98
97
28
122
32
29
33
25
26
27
31
12
14
16
-1
EOF
